Prototype/modified-results/vertexcover2-2/vertexcover205.dat-s
"Vertexcover tests with graphs with 20 vertices and 1-190 edges"
46
1
{21}
1 0 0 0 0 0 0 0 0 0 0 0 0 0 0 0 0 0 0 0 0 2 2 2 2 2 2 2 2 2 2 2 2 2 2 2 2 2 2 2 2 2 2 2 2 2
0 1 1 1 -1.0
0 1 2 2 -1.0
0 1 3 3 -1.0
0 1 4 4 -1.0
0 1 5 5 -1.0
0 1 6 6 -1.0
0 1 7 7 -1.0
0 1 8 8 -1.0
0 1 9 9 -1.0
0 1 10 10 -1.0
0 1 11 11 -1.0
0 1 12 12 -1.0
0 1 13 13 -1.0
0 1 14 14 -1.0
0 1 15 15 -1.0
0 1 16 16 -1.0
0 1 17 17 -1.0
0 1 18 18 -1.0
0 1 19 19 -1.0
0 1 20 20 -1.0
0 1 21 21 -1.0
1 1 1 1 1.0
2 1 1 2 -1.0
2 1 2 2 2.0
3 1 1 3 -1.0
3 1 3 3 2.0
4 1 1 4 -1.0
4 1 4 4 2.0
5 1 1 5 -1.0
5 1 5 5 2.0
6 1 1 6 -1.0
6 1 6 6 2.0
7 1 1 7 -1.0
7 1 7 7 2.0
8 1 1 8 -1.0
8 1 8 8 2.0
9 1 1 9 -1.0
9 1 9 9 2.0
10 1 1 10 -1.0
10 1 10 10 2.0
11 1 1 11 -1.0
11 1 11 11 2.0
12 1 1 12 -1.0
12 1 12 12 2.0
13 1 1 13 -1.0
13 1 13 13 2.0
14 1 1 14 -1.0
14 1 14 14 2.0
15 1 1 15 -1.0
15 1 15 15 2.0
16 1 1 16 -1.0
16 1 16 16 2.0
17 1 1 17 -1.0
17 1 17 17 2.0
18 1 1 18 -1.0
18 1 18 18 2.0
19 1 1 19 -1.0
19 1 19 19 2.0
20 1 1 20 -1.0
20 1 20 20 2.0
21 1 1 21 -1.0
21 1 21 21 2.0
22 1 1 2 1.0
22 1 1 10 1.0
22 1 2 10 -1.0
23 1 1 2 1.0
23 1 1 18 1.0
23 1 2 18 -1.0
24 1 1 3 1.0
24 1 1 6 1.0
24 1 3 6 -1.0
25 1 1 3 1.0
25 1 1 15 1.0
25 1 3 15 -1.0
26 1 1 4 1.0
26 1 1 8 1.0
26 1 4 8 -1.0
27 1 1 4 1.0
27 1 1 13 1.0
27 1 4 13 -1.0
28 1 1 4 1.0
28 1 1 14 1.0
28 1 4 14 -1.0
29 1 1 4 1.0
29 1 1 20 1.0
29 1 4 20 -1.0
30 1 1 5 1.0
30 1 1 21 1.0
30 1 5 21 -1.0
31 1 1 6 1.0
31 1 1 10 1.0
31 1 6 10 -1.0
32 1 1 6 1.0
32 1 1 11 1.0
32 1 6 11 -1.0
33 1 1 6 1.0
33 1 1 12 1.0
33 1 6 12 -1.0
34 1 1 6 1.0
34 1 1 13 1.0
34 1 6 13 -1.0
35 1 1 7 1.0
35 1 1 16 1.0
35 1 7 16 -1.0
36 1 1 7 1.0
36 1 1 21 1.0
36 1 7 21 -1.0
37 1 1 9 1.0
37 1 1 17 1.0
37 1 9 17 -1.0
38 1 1 9 1.0
38 1 1 21 1.0
38 1 9 21 -1.0
39 1 1 10 1.0
39 1 1 15 1.0
39 1 10 15 -1.0
40 1 1 10 1.0
40 1 1 17 1.0
40 1 10 17 -1.0
41 1 1 11 1.0
41 1 1 12 1.0
41 1 11 12 -1.0
42 1 1 11 1.0
42 1 1 19 1.0
42 1 11 19 -1.0
43 1 1 11 1.0
43 1 1 20 1.0
43 1 11 20 -1.0
44 1 1 12 1.0
44 1 1 15 1.0
44 1 12 15 -1.0
45 1 1 12 1.0
45 1 1 21 1.0
45 1 12 21 -1.0
46 1 1 14 1.0
46 1 1 15 1.0
46 1 14 15 -1.0
