Prototype/modified-results/vertexcover2-2/vertexcover205.dat-s.log
SDPA (Version 7.3.6) start at [Thu Jul 15 21:27:33 2021]
param is ./param.sdpa
data  is G:\Research\PhysarumSDPSolver\SDPA\testSet\vertexcover2\vertexcover205.dat-s : sparse
out   is G:\Research\PhysarumSDPSolver\SDPA\testSet\vertexcover2\vertexcover205.dat-s.res
NumThreads  is set as 1
Schur computation : DENSE 
   mu      thetaP  thetaD  objP      objD      alphaP  alphaD  beta 
Entering DMUMPS driver with JOB, N, NZ =  -2           0              0
 0 1.0e+004 1.0e+000 1.0e+000 -0.00e+000 -2.10e+003 1.0e+000 8.1e-001 2.00e-001
 1 2.7e+003 0.0e+000 1.9e-001 +1.25e+003 -4.76e+002 8.3e-001 8.3e-001 2.00e-001
 2 6.6e+002 2.5e-016 3.4e-002 +1.57e+003 -9.16e+001 2.1e+000 7.7e-001 2.00e-001
 3 2.6e+002 2.2e-016 7.9e-003 +1.42e+003 -3.09e+001 1.3e+000 6.6e-001 2.00e-001
 4 1.1e+002 2.9e-016 2.7e-003 +9.30e+002 -2.00e+001 9.5e-001 6.7e-001 2.00e-001
 5 4.4e+001 2.9e-016 8.8e-004 +5.07e+002 -1.64e+001 1.1e+000 9.5e-001 2.00e-001
 6 1.0e+001 2.9e-016 4.4e-005 +1.88e+002 -1.52e+001 1.0e+000 1.0e+000 2.00e-001
 7 1.8e+000 4.7e-016 7.9e-016 +2.35e+001 -1.49e+001 7.7e-001 1.8e+000 1.00e-001
 8 5.3e-001 4.5e-016 1.1e-015 -2.42e+000 -1.35e+001 6.2e-001 6.3e-001 1.00e-001
 9 2.3e-001 4.6e-016 7.0e-016 -7.49e+000 -1.23e+001 8.3e-001 6.0e-001 1.00e-001
10 8.9e-002 4.7e-016 5.0e-016 -8.81e+000 -1.07e+001 7.6e-001 7.6e-001 1.00e-001
11 2.9e-002 4.7e-016 1.2e-016 -8.80e+000 -9.40e+000 9.3e-001 9.4e-001 1.00e-001
12 4.4e-003 4.7e-016 4.2e-017 -8.98e+000 -9.07e+000 9.3e-001 9.6e-001 1.00e-001
13 6.3e-004 4.7e-016 3.9e-017 -9.00e+000 -9.01e+000 9.3e-001 9.8e-001 1.00e-001
14 8.0e-005 4.7e-016 1.5e-016 -9.00e+000 -9.00e+000 9.4e-001 1.0e+000 1.00e-001
15 8.7e-006 4.7e-016 2.4e-015 -9.00e+000 -9.00e+000 9.5e-001 1.0e+000 1.00e-001
16 8.9e-007 4.8e-016 2.2e-014 -9.00e+000 -9.00e+000 9.5e-001 1.0e+000 1.00e-001
17 8.9e-008 4.7e-016 1.5e-013 -9.00e+000 -9.00e+000 9.5e-001 1.0e+000 1.00e-001
18 9.2e-009 4.8e-016 1.9e-012 -9.00e+000 -9.00e+000 9.5e-001 1.0e+000 1.00e-001

phase.value  = pdOPT     
   Iteration = 18
          mu = +9.1525327422779068e-009
relative gap = +2.1394949664552064e-008
        gap  = +1.9255454830613417e-007
     digits  = +7.6696887309343369e+000
objValPrimal = -8.9999999656609688e+000
objValDual   = -9.0000001582155171e+000
p.feas.error = +4.7073456244106637e-014
d.feas.error = +3.7908476357984000e-010
total time   = 0.080794
  main loop time = 0.079801
      total time = 0.080794
file  check time = 0.000000
file change time = 0.000000
file   read time = 0.000993
SDPA end at [Thu Jul 15 21:27:33 2021]
ALL TIME = 0.082164
