Prototype/modified-results/vertexcover2-2/vertexcover205.dat-s.res
SDPA start at [Thu Jul 15 21:27:33 2021]
param  is ./param.sdpa 
data   is G:\Research\PhysarumSDPSolver\SDPA\testSet\vertexcover2\vertexcover205.dat-s  : sparse
"Vertexcover tests with graphs with 20 vertices and 1-190 edges"
out    is G:\Research\PhysarumSDPSolver\SDPA\testSet\vertexcover2\vertexcover205.dat-s.res
NumThreads  is set as 1
Schur computation : DENSE 
   mu      thetaP  thetaD  objP      objD      alphaP  alphaD  beta 
 0 1.0e+004 1.0e+000 1.0e+000 -0.00e+000 -2.10e+003 1.0e+000 8.1e-001 2.00e-001
 1 2.7e+003 0.0e+000 1.9e-001 +1.25e+003 -4.76e+002 8.3e-001 8.3e-001 2.00e-001
 2 6.6e+002 2.5e-016 3.4e-002 +1.57e+003 -9.16e+001 2.1e+000 7.7e-001 2.00e-001
 3 2.6e+002 2.2e-016 7.9e-003 +1.42e+003 -3.09e+001 1.3e+000 6.6e-001 2.00e-001
 4 1.1e+002 2.9e-016 2.7e-003 +9.30e+002 -2.00e+001 9.5e-001 6.7e-001 2.00e-001
 5 4.4e+001 2.9e-016 8.8e-004 +5.07e+002 -1.64e+001 1.1e+000 9.5e-001 2.00e-001
 6 1.0e+001 2.9e-016 4.4e-005 +1.88e+002 -1.52e+001 1.0e+000 1.0e+000 2.00e-001
 7 1.8e+000 4.7e-016 7.9e-016 +2.35e+001 -1.49e+001 7.7e-001 1.8e+000 1.00e-001
 8 5.3e-001 4.5e-016 1.1e-015 -2.42e+000 -1.35e+001 6.2e-001 6.3e-001 1.00e-001
 9 2.3e-001 4.6e-016 7.0e-016 -7.49e+000 -1.23e+001 8.3e-001 6.0e-001 1.00e-001
10 8.9e-002 4.7e-016 5.0e-016 -8.81e+000 -1.07e+001 7.6e-001 7.6e-001 1.00e-001
11 2.9e-002 4.7e-016 1.2e-016 -8.80e+000 -9.40e+000 9.3e-001 9.4e-001 1.00e-001
12 4.4e-003 4.7e-016 4.2e-017 -8.98e+000 -9.07e+000 9.3e-001 9.6e-001 1.00e-001
13 6.3e-004 4.7e-016 3.9e-017 -9.00e+000 -9.01e+000 9.3e-001 9.8e-001 1.00e-001
14 8.0e-005 4.7e-016 1.5e-016 -9.00e+000 -9.00e+000 9.4e-001 1.0e+000 1.00e-001
15 8.7e-006 4.7e-016 2.4e-015 -9.00e+000 -9.00e+000 9.5e-001 1.0e+000 1.00e-001
16 8.9e-007 4.8e-016 2.2e-014 -9.00e+000 -9.00e+000 9.5e-001 1.0e+000 1.00e-001
17 8.9e-008 4.7e-016 1.5e-013 -9.00e+000 -9.00e+000 9.5e-001 1.0e+000 1.00e-001
18 9.2e-009 4.8e-016 1.9e-012 -9.00e+000 -9.00e+000 9.5e-001 1.0e+000 1.00e-001

phase.value  = pdOPT     
   Iteration = 18
          mu = +9.1525327422779068e-009
relative gap = +2.1394949664552064e-008
        gap  = +1.9255454830613417e-007
     digits  = +7.6696887309343369e+000
objValPrimal = -8.9999999656609688e+000
objValDual   = -9.0000001582155171e+000
p.feas.error = +4.7073456244106637e-014
d.feas.error = +3.7908476357984000e-010
total time   = 0.080794
** Paramters **
maxIteration = 100
epsilonStar  = +9.9999999999999995e-008
lambdaStar   = +1.0000000000000000e+002
omegaStar    = +2.0000000000000000e+000
lowerBound   = -1.0000000000000000e+005
upperBound   = +1.0000000000000000e+005
betaStar     = +1.0000000000000001e-001
betaBar      = +2.0000000000000001e-001
gammaStar    = +9.0000000000000002e-001
epsilonDash  = +9.9999999999999995e-008
xPrint       = %+8.3e 
XPrint       = %+8.3e 
YPrint       = %+8.3e 
infPrint     = %+10.16e 

                         Time(sec)  Ratio(% : MainLoop) 
 Predictor time  =       0.023950,  30.012155
 Corrector time  =       0.013967,  17.502287
 Make bMat time  =       0.004919,  6.164083
 Make bDia time  =       0.000000,  0.000000
 Make bF1  time  =       0.000000,  0.000000
 Make bF2  time  =       0.000000,  0.000000
 Make bF3  time  =       0.000997,  1.249358
 Make bPRE time  =       0.000000,  0.000000
 Make rMat time  =       0.003251,  4.073884
 Make gVec Mul   =       0.000000,  0.000000
 Make gVec time  =       0.000000,  0.000000
 Cholesky bMat   =       0.008795,  11.021165
 Ste Pre time    =       0.000000,  0.000000
 Ste Cor time    =       0.035896,  44.981892
 solve           =       0.000998,  1.250611
 sumDz           =       0.001993,  2.497462
 makedX          =       0.001997,  2.502475
 symmetriseDx    =       0.015964,  20.004762
 makedXdZ        =       0.019954,  25.004699
 xMatTime        =       0.001996,  2.501222
 zMatTime        =       0.001995,  2.499969
 invzMatTime     =       0.000000,  0.000000
 xMatzMatTime    =       0.000000,  0.000000
 EigxMatTime     =       0.017994,  22.548590
 EigzMatTime     =       0.017902,  22.433303
 EigxMatzMatTime =       0.000000,  0.000000
 updateRes       =       0.000997,  1.249358
 EigTime         =       0.035896,  44.981892
 sub_total_bMat  =       0.074882,  93.835917
 Main Loop       =       0.079801,  100.000000
 File Check      =       0.000000,  0.000000
 File Change     =       0.000000,  0.000000
 File Read       =       0.000993,  1.244345
 Total           =       0.080794,  101.244345

xVec = 
{+2.369e+001,+5.246e-001,+1.400e-009,+1.864e+000,+7.701e-010,+1.208e+000,-4.208e-009,+1.060e-009,+2.245e-009,+3.840e-009,+1.474e+000,+3.214e-009,+1.488e-009,+1.451e-009,+1.072e+000,+3.879e-008,+4.535e-001,+1.174e-009,+8.724e-010,+1.173e-009,+9.020e-001,-5.402e-001,-9.844e-001,-6.092e-001,-6.757e-001,-9.728e-001,-6.231e-001,-5.510e-001,-7.173e-001,-9.756e-001,-2.228e-001,-8.483e-001,-5.781e-001,-7.981e-001,-1.000e+000,-2.893e-008,-8.445e-001,-4.135e-001,-2.458e-001,-6.090e-001,-7.175e-001,-9.721e-001,-7.840e-001,-3.460e-001,-5.130e-001,-8.044e-001}
xMat = 
{
{ {+2.469e+001,-2.049e+000,-1.285e+000,-4.728e+000,-9.756e-001,-4.265e+000,-1.000e+000,-9.728e-001,-1.258e+000,-1.618e+000,-4.795e+000,-2.155e+000,-1.421e+000,-1.355e+000,-3.144e+000,-1.000e+000,-1.907e+000,-9.844e-001,-9.721e-001,-1.501e+000,-2.804e+000 },
  {-2.049e+000,+2.049e+000,+0.000e+000,+0.000e+000,+0.000e+000,+0.000e+000,+0.000e+000,+0.000e+000,+0.000e+000,+5.402e-001,+0.000e+000,+0.000e+000,+0.000e+000,+0.000e+000,+0.000e+000,+0.000e+000,+0.000e+000,+9.844e-001,+0.000e+000,+0.000e+000,+0.000e+000 },
  {-1.285e+000,+0.000e+000,+1.000e+000,+0.000e+000,+0.000e+000,+6.092e-001,+0.000e+000,+0.000e+000,+0.000e+000,+0.000e+000,+0.000e+000,+0.000e+000,+0.000e+000,+0.000e+000,+6.757e-001,+0.000e+000,+0.000e+000,+0.000e+000,+0.000e+000,+0.000e+000,+0.000e+000 },
  {-4.728e+000,+0.000e+000,+0.000e+000,+4.728e+000,+0.000e+000,+0.000e+000,+0.000e+000,+9.728e-001,+0.000e+000,+0.000e+000,+0.000e+000,+0.000e+000,+6.231e-001,+5.510e-001,+0.000e+000,+0.000e+000,+0.000e+000,+0.000e+000,+0.000e+000,+7.173e-001,+0.000e+000 },
  {-9.756e-001,+0.000e+000,+0.000e+000,+0.000e+000,+1.000e+000,+0.000e+000,+0.000e+000,+0.000e+000,+0.000e+000,+0.000e+000,+0.000e+000,+0.000e+000,+0.000e+000,+0.000e+000,+0.000e+000,+0.000e+000,+0.000e+000,+0.000e+000,+0.000e+000,+0.000e+000,+9.756e-001 },
  {-4.265e+000,+0.000e+000,+6.092e-001,+0.000e+000,+0.000e+000,+3.416e+000,+0.000e+000,+0.000e+000,+0.000e+000,+2.228e-001,+8.483e-001,+5.781e-001,+7.981e-001,+0.000e+000,+0.000e+000,+0.000e+000,+0.000e+000,+0.000e+000,+0.000e+000,+0.000e+000,+0.000e+000 },
  {-1.000e+000,+0.000e+000,+0.000e+000,+0.000e+000,+0.000e+000,+0.000e+000,+1.000e+000,+0.000e+000,+0.000e+000,+0.000e+000,+0.000e+000,+0.000e+000,+0.000e+000,+0.000e+000,+0.000e+000,+1.000e+000,+0.000e+000,+0.000e+000,+0.000e+000,+0.000e+000,+2.893e-008 },
  {-9.728e-001,+0.000e+000,+0.000e+000,+9.728e-001,+0.000e+000,+0.000e+000,+0.000e+000,+1.000e+000,+0.000e+000,+0.000e+000,+0.000e+000,+0.000e+000,+0.000e+000,+0.000e+000,+0.000e+000,+0.000e+000,+0.000e+000,+0.000e+000,+0.000e+000,+0.000e+000,+0.000e+000 },
  {-1.258e+000,+0.000e+000,+0.000e+000,+0.000e+000,+0.000e+000,+0.000e+000,+0.000e+000,+0.000e+000,+1.000e+000,+0.000e+000,+0.000e+000,+0.000e+000,+0.000e+000,+0.000e+000,+0.000e+000,+0.000e+000,+8.445e-001,+0.000e+000,+0.000e+000,+0.000e+000,+4.135e-001 },
  {-1.618e+000,+5.402e-001,+0.000e+000,+0.000e+000,+0.000e+000,+2.228e-001,+0.000e+000,+0.000e+000,+0.000e+000,+1.000e+000,+0.000e+000,+0.000e+000,+0.000e+000,+0.000e+000,+2.458e-001,+0.000e+000,+6.090e-001,+0.000e+000,+0.000e+000,+0.000e+000,+0.000e+000 },
  {-4.795e+000,+0.000e+000,+0.000e+000,+0.000e+000,+0.000e+000,+8.483e-001,+0.000e+000,+0.000e+000,+0.000e+000,+0.000e+000,+3.947e+000,+7.175e-001,+0.000e+000,+0.000e+000,+0.000e+000,+0.000e+000,+0.000e+000,+0.000e+000,+9.721e-001,+7.840e-001,+0.000e+000 },
  {-2.155e+000,+0.000e+000,+0.000e+000,+0.000e+000,+0.000e+000,+5.781e-001,+0.000e+000,+0.000e+000,+0.000e+000,+0.000e+000,+7.175e-001,+1.000e+000,+0.000e+000,+0.000e+000,+3.460e-001,+0.000e+000,+0.000e+000,+0.000e+000,+0.000e+000,+0.000e+000,+5.130e-001 },
  {-1.421e+000,+0.000e+000,+0.000e+000,+6.231e-001,+0.000e+000,+7.981e-001,+0.000e+000,+0.000e+000,+0.000e+000,+0.000e+000,+0.000e+000,+0.000e+000,+1.000e+000,+0.000e+000,+0.000e+000,+0.000e+000,+0.000e+000,+0.000e+000,+0.000e+000,+0.000e+000,+0.000e+000 },
  {-1.355e+000,+0.000e+000,+0.000e+000,+5.510e-001,+0.000e+000,+0.000e+000,+0.000e+000,+0.000e+000,+0.000e+000,+0.000e+000,+0.000e+000,+0.000e+000,+0.000e+000,+1.000e+000,+8.044e-001,+0.000e+000,+0.000e+000,+0.000e+000,+0.000e+000,+0.000e+000,+0.000e+000 },
  {-3.144e+000,+0.000e+000,+6.757e-001,+0.000e+000,+0.000e+000,+0.000e+000,+0.000e+000,+0.000e+000,+0.000e+000,+2.458e-001,+0.000e+000,+3.460e-001,+0.000e+000,+8.044e-001,+3.144e+000,+0.000e+000,+0.000e+000,+0.000e+000,+0.000e+000,+0.000e+000,+0.000e+000 },
  {-1.000e+000,+0.000e+000,+0.000e+000,+0.000e+000,+0.000e+000,+0.000e+000,+1.000e+000,+0.000e+000,+0.000e+000,+0.000e+000,+0.000e+000,+0.000e+000,+0.000e+000,+0.000e+000,+0.000e+000,+1.000e+000,+0.000e+000,+0.000e+000,+0.000e+000,+0.000e+000,+0.000e+000 },
  {-1.907e+000,+0.000e+000,+0.000e+000,+0.000e+000,+0.000e+000,+0.000e+000,+0.000e+000,+0.000e+000,+8.445e-001,+6.090e-001,+0.000e+000,+0.000e+000,+0.000e+000,+0.000e+000,+0.000e+000,+0.000e+000,+1.907e+000,+0.000e+000,+0.000e+000,+0.000e+000,+0.000e+000 },
  {-9.844e-001,+9.844e-001,+0.000e+000,+0.000e+000,+0.000e+000,+0.000e+000,+0.000e+000,+0.000e+000,+0.000e+000,+0.000e+000,+0.000e+000,+0.000e+000,+0.000e+000,+0.000e+000,+0.000e+000,+0.000e+000,+0.000e+000,+1.000e+000,+0.000e+000,+0.000e+000,+0.000e+000 },
  {-9.721e-001,+0.000e+000,+0.000e+000,+0.000e+000,+0.000e+000,+0.000e+000,+0.000e+000,+0.000e+000,+0.000e+000,+0.000e+000,+9.721e-001,+0.000e+000,+0.000e+000,+0.000e+000,+0.000e+000,+0.000e+000,+0.000e+000,+0.000e+000,+1.000e+000,+0.000e+000,+0.000e+000 },
  {-1.501e+000,+0.000e+000,+0.000e+000,+7.173e-001,+0.000e+000,+0.000e+000,+0.000e+000,+0.000e+000,+0.000e+000,+0.000e+000,+7.840e-001,+0.000e+000,+0.000e+000,+0.000e+000,+0.000e+000,+0.000e+000,+0.000e+000,+0.000e+000,+0.000e+000,+1.000e+000,+0.000e+000 },
  {-2.804e+000,+0.000e+000,+0.000e+000,+0.000e+000,+9.756e-001,+0.000e+000,+2.893e-008,+0.000e+000,+4.135e-001,+0.000e+000,+0.000e+000,+5.130e-001,+0.000e+000,+0.000e+000,+0.000e+000,+0.000e+000,+0.000e+000,+0.000e+000,+0.000e+000,+0.000e+000,+2.804e+000 }   }
}
yMat = 
{
{ {+1.000e+000,+1.000e+000,+1.764e-008,+1.000e+000,+1.730e-008,+1.000e+000,+5.032e-001,+1.264e-008,+2.720e-008,+3.082e-008,+1.000e+000,+2.346e-008,+1.665e-008,+1.695e-008,+1.000e+000,+4.968e-001,+1.000e+000,+2.362e-008,+1.373e-008,+1.571e-008,+1.000e+000 },
  {+1.000e+000,+1.000e+000,+1.294e-008,+1.000e+000,+1.371e-008,+1.000e+000,+5.032e-001,+1.112e-008,+1.813e-008,+1.541e-008,+1.000e+000,+1.771e-008,+1.288e-008,+1.298e-008,+1.000e+000,+4.968e-001,+1.000e+000,+8.349e-009,+1.293e-008,+1.397e-008,+1.000e+000 },
  {+1.764e-008,+1.294e-008,+1.764e-008,+1.477e-008,+4.112e-009,+1.086e-008,+1.612e-008,+2.855e-009,+6.786e-009,+9.415e-009,+1.670e-008,+9.362e-009,+7.384e-009,+7.791e-009,+1.010e-008,+1.526e-009,+1.167e-008,+4.720e-009,+9.436e-010,+2.828e-009,+1.353e-008 },
  {+1.000e+000,+1.000e+000,+1.477e-008,+1.000e+000,+1.569e-008,+1.000e+000,+5.032e-001,+8.281e-009,+2.482e-008,+2.778e-008,+1.000e+000,+1.957e-008,+1.226e-008,+1.262e-008,+1.000e+000,+4.968e-001,+1.000e+000,+2.210e-008,+1.227e-008,+1.138e-008,+1.000e+000 },
  {+1.730e-008,+1.371e-008,+4.112e-009,+1.569e-008,+1.730e-008,+1.432e-008,-9.169e-009,+1.601e-009,+8.995e-009,+7.193e-009,+1.535e-008,+8.953e-009,+3.468e-009,+3.616e-009,+1.398e-008,+2.647e-008,+1.105e-008,+3.606e-009,+1.953e-009,+2.718e-009,+8.297e-009 },
  {+1.000e+000,+1.000e+000,+1.086e-008,+1.000e+000,+1.432e-008,+1.000e+000,+5.032e-001,+1.065e-008,+2.227e-008,+2.399e-008,+1.000e+000,+1.665e-008,+9.853e-009,+1.273e-008,+1.000e+000,+4.968e-001,+1.000e+000,+2.020e-008,+1.375e-008,+1.427e-008,+1.000e+000 },
  {+5.032e-001,+5.032e-001,+1.612e-008,+5.032e-001,-9.169e-009,+5.032e-001,+5.032e-001,+1.978e-008,-1.498e-008,-1.710e-009,+5.032e-001,-1.909e-008,+1.729e-008,+1.624e-008,+5.032e-001,+8.340e-009,+5.032e-001,+2.662e-008,+1.911e-008,+1.976e-008,+5.032e-001 },
  {+1.264e-008,+1.112e-008,+2.855e-009,+8.281e-009,+1.601e-009,+1.065e-008,+1.978e-008,+1.264e-008,+2.362e-009,+3.025e-009,+1.119e-008,+3.862e-009,+4.356e-009,+4.303e-009,+1.025e-008,-7.142e-009,+1.064e-008,+1.516e-009,+1.449e-009,+4.303e-009,+1.103e-008 },
  {+2.720e-008,+1.813e-008,+6.786e-009,+2.482e-008,+8.995e-009,+2.227e-008,-1.498e-008,+2.362e-009,+2.720e-008,+1.814e-008,+2.522e-008,+1.084e-008,+5.548e-009,+5.819e-009,+2.171e-008,+4.218e-008,+9.420e-009,+9.091e-009,+1.972e-009,+3.287e-009,+1.819e-008 },
  {+3.082e-008,+1.541e-008,+9.415e-009,+2.778e-008,+7.193e-009,+2.399e-008,-1.710e-009,+3.025e-009,+1.814e-008,+3.082e-008,+2.921e-008,+1.149e-008,+7.538e-009,+7.940e-009,+2.321e-008,+3.253e-008,+1.307e-008,+1.545e-008,+1.605e-009,+3.477e-009,+2.362e-008 },
  {+1.000e+000,+1.000e+000,+1.670e-008,+1.000e+000,+1.535e-008,+1.000e+000,+5.032e-001,+1.119e-008,+2.522e-008,+2.921e-008,+1.000e+000,+1.803e-008,+1.575e-008,+1.500e-008,+1.000e+000,+4.968e-001,+1.000e+000,+2.282e-008,+8.304e-009,+1.034e-008,+1.000e+000 },
  {+2.346e-008,+1.771e-008,+9.362e-009,+1.957e-008,+8.953e-009,+1.665e-008,-1.909e-008,+3.862e-009,+1.084e-008,+1.149e-008,+1.803e-008,+2.346e-008,+8.035e-009,+8.349e-009,+1.589e-008,+4.255e-008,+1.503e-008,+5.761e-009,+5.423e-009,+7.124e-009,+1.449e-008 },
  {+1.665e-008,+1.288e-008,+7.384e-009,+1.226e-008,+3.468e-009,+9.853e-009,+1.729e-008,+4.356e-009,+5.548e-009,+7.538e-009,+1.575e-008,+8.035e-009,+1.665e-008,+6.182e-009,+1.201e-008,-6.427e-010,+1.181e-008,+3.778e-009,+8.975e-010,+3.885e-009,+1.317e-008 },
  {+1.695e-008,+1.298e-008,+7.791e-009,+1.262e-008,+3.616e-009,+1.273e-008,+1.624e-008,+4.303e-009,+5.819e-009,+7.940e-009,+1.500e-008,+8.349e-009,+6.182e-009,+1.695e-008,+9.316e-009,+7.150e-010,+1.187e-008,+3.980e-009,+1.952e-009,+4.684e-009,+1.333e-008 },
  {+1.000e+000,+1.000e+000,+1.010e-008,+1.000e+000,+1.398e-008,+1.000e+000,+5.032e-001,+1.025e-008,+2.171e-008,+2.321e-008,+1.000e+000,+1.589e-008,+1.201e-008,+9.316e-009,+1.000e+000,+4.968e-001,+1.000e+000,+1.981e-008,+1.232e-008,+1.285e-008,+1.000e+000 },
  {+4.968e-001,+4.968e-001,+1.526e-009,+4.968e-001,+2.647e-008,+4.968e-001,+8.340e-009,-7.142e-009,+4.218e-008,+3.253e-008,+4.968e-001,+4.255e-008,-6.427e-010,+7.150e-010,+4.968e-001,+4.968e-001,+4.968e-001,-2.999e-009,-5.377e-009,-4.048e-009,+4.968e-001 },
  {+1.000e+000,+1.000e+000,+1.167e-008,+1.000e+000,+1.105e-008,+1.000e+000,+5.032e-001,+1.064e-008,+9.420e-009,+1.307e-008,+1.000e+000,+1.503e-008,+1.181e-008,+1.187e-008,+1.000e+000,+4.968e-001,+1.000e+000,+1.473e-008,+1.235e-008,+1.316e-008,+1.000e+000 },
  {+2.362e-008,+8.349e-009,+4.720e-009,+2.210e-008,+3.606e-009,+2.020e-008,+2.662e-008,+1.516e-009,+9.091e-009,+1.545e-008,+2.282e-008,+5.761e-009,+3.778e-009,+3.980e-009,+1.981e-008,-2.999e-009,+1.473e-008,+2.362e-008,+8.047e-010,+1.744e-009,+2.001e-008 },
  {+1.373e-008,+1.293e-008,+9.436e-010,+1.227e-008,+1.953e-009,+1.375e-008,+1.911e-008,+1.449e-009,+1.972e-009,+1.605e-009,+8.304e-009,+5.423e-009,+8.975e-010,+1.952e-009,+1.232e-008,-5.377e-009,+1.235e-008,+8.047e-010,+1.373e-008,+5.366e-009,+1.178e-008 },
  {+1.571e-008,+1.397e-008,+2.828e-009,+1.138e-008,+2.718e-009,+1.427e-008,+1.976e-008,+4.303e-009,+3.287e-009,+3.477e-009,+1.034e-008,+7.124e-009,+3.885e-009,+4.684e-009,+1.285e-008,-4.048e-009,+1.316e-008,+1.744e-009,+5.366e-009,+1.571e-008,+1.299e-008 },
  {+1.000e+000,+1.000e+000,+1.353e-008,+1.000e+000,+8.297e-009,+1.000e+000,+5.032e-001,+1.103e-008,+1.819e-008,+2.362e-008,+1.000e+000,+1.449e-008,+1.317e-008,+1.333e-008,+1.000e+000,+4.968e-001,+1.000e+000,+2.001e-008,+1.178e-008,+1.299e-008,+1.000e+000 }   }
}
    main loop time = 0.079801
        total time = 0.080794
  file  check time = 0.000000
  file change time = 0.000000
  file   read time = 0.000993
SDPA end at [Thu Jul 15 21:27:33 2021]
ALL TIME = 0.082164
